
Gurobi 11.0.3 (linux64) logging started Wed Apr 15 04:04:47 2026

Set parameter LogFile to value "tree/results/htds/htds_depth-4_run-1/Full MIP/LogFile_FullModel.txt"
Gurobi Optimizer version 11.0.3 build v11.0.3rc0 (linux64 - "CentOS Linux 7 (Core)")

CPU model: Intel(R) Xeon(R) Platinum 8260 CPU @ 2.40GHz, instruction set [SSE2|AVX|AVX2|AVX512]
Thread count: 96 physical cores, 192 logical processors, using up to 32 threads

Optimize a model with 48073 rows, 29754 columns and 883487 nonzeros
Model fingerprint: 0xf1242832
Model has 3600 general constraints
Variable types: 18604 continuous, 11150 integer (11150 binary)
Coefficient statistics:
  Matrix range     [4e-03, 1e+04]
  Objective range  [4e-03, 1e+04]
  Bounds range     [1e+00, 7e+02]
  RHS range        [1e-04, 1e+03]

User MIP start produced solution with objective -23699.3 (0.24s)
Loaded user MIP start with objective -23699.3

Presolve added 3584 rows and 14400 columns
Presolve time: 1.28s
Presolved: 51657 rows, 44154 columns, 912239 nonzeros
Presolved model has 14400 SOS constraint(s)
Variable types: 18604 continuous, 25550 integer (25550 binary)

Deterministic concurrent LP optimizer: primal simplex, dual simplex, and barrier
Showing barrier log only...

Root relaxation presolved: 51657 rows, 44154 columns, 912239 nonzeros

Root barrier log...

Ordering time: 0.06s

Barrier statistics:
 Dense cols : 285
 AA' NZ     : 9.290e+05
 Factor NZ  : 3.794e+06 (roughly 70 MB of memory)
 Factor Ops : 3.069e+08 (less than 1 second per iteration)
 Threads    : 30

                  Objective                Residual
Iter       Primal          Dual         Primal    Dual     Compl     Time
   0  -8.69659570e+04  6.99359268e+08  1.80e+04 1.11e-14  7.76e+05     3s
   1  -3.82045842e+04  1.13202256e+09  4.08e+03 6.77e+01  2.25e+05     3s
   2  -1.62375985e+04  1.06661782e+09  5.67e+02 9.63e+00  3.75e+04     3s
   3  -1.18584317e+04  4.75561427e+08  5.79e+01 9.48e-01  6.49e+03     4s
   4  -2.80047264e+03  6.26191394e+07  2.84e+00 9.31e-02  7.24e+02     4s
   5  -2.79463574e+02  7.66486093e+06  2.41e-01 9.27e-03  8.24e+01     4s
   6  -2.70423359e+01  7.98967059e+05  2.45e-02 9.31e-04  8.33e+00     4s
   7  -1.80028288e+00  8.40065054e+04  2.87e-03 9.78e-05  8.73e-01     4s
   8   7.23402688e-01  1.11826067e+04  6.54e-04 1.30e-05  1.16e-01     5s
   9   9.41604586e-01  1.15626381e+03  6.48e-05 1.33e-06  1.20e-02     5s
  10   9.94160243e-01  1.16528869e+02  6.46e-06 1.33e-07  1.20e-03     5s
  11   9.99415922e-01  1.26606653e+01  6.40e-07 1.33e-08  1.21e-04     5s
  12   9.99941592e-01  2.16606730e+00  6.40e-08 1.33e-09  1.21e-05     5s
  13   9.99994159e-01  1.11769453e+00  6.34e-09 1.33e-10  1.22e-06     5s
  14   9.99999416e-01  1.01176945e+00  6.34e-10 1.33e-11  1.22e-07     6s
  15   9.99999942e-01  1.00118793e+00  6.32e-11 1.33e-12  1.23e-08     6s
  16   9.99999994e-01  1.00011879e+00  6.57e-12 1.33e-13  1.23e-09     6s
  17   9.99999999e-01  1.00001188e+00  8.81e-13 1.33e-14  1.23e-10     6s
  18   1.00000000e+00  1.00000119e+00  4.69e-13 1.33e-15  1.23e-11     7s
  19   1.00000000e+00  1.00000012e+00  4.05e-13 1.42e-14  1.23e-12     7s
  20   1.00000000e+00  1.00000001e+00  4.55e-13 1.39e-17  1.23e-13     7s

Barrier solved model in 20 iterations and 6.85 seconds (4.04 work units)
Optimal objective 1.00000000e+00


Root crossover log...

    2057 DPushes remaining with DInf 0.0000000e+00                 7s
       0 DPushes remaining with DInf 0.0000000e+00                 7s

   17790 PPushes remaining with PInf 0.0000000e+00                 7s
       0 PPushes remaining with PInf 0.0000000e+00                 8s

  Push phase complete: Pinf 0.0000000e+00, Dinf 0.0000000e+00      8s


Root simplex log...

Iteration    Objective       Primal Inf.    Dual Inf.      Time
   17794    1.0000000e+00   0.000000e+00   0.000000e+00      8s
   17794    1.0000000e+00   0.000000e+00   0.000000e+00      8s
Concurrent spin time: 0.00s

Solved with barrier

Root relaxation: objective 1.000000e+00, 17794 iterations, 6.26 seconds (4.02 work units)
Total elapsed time = 35.05s (DegenMoves)

    Nodes    |    Current Node    |     Objective Bounds      |     Work
 Expl Unexpl |  Obj  Depth IntInf | Incumbent    BestBd   Gap | It/Node Time

     0     0    1.00000    0 2959 -23699.284    1.00000   100%     -   35s
     0     2    1.00000    0 2959 -23699.284    1.00000   100%     -  172s
     1     4    1.00000    1 2958 -23699.284    1.00000   100% 15790  201s
H   31    64                       0.6800000    1.00000  47.1%   513  235s
H   95   128                       0.6844444    1.00000  46.1%   168  327s
H  124   128                       0.6888889    1.00000  45.2%   129  327s
   159   192    1.00000    9 2950    0.68889    1.00000  45.2%   101  523s
   191   224    1.00000   10 2949    0.68889    1.00000  45.2%  84.3  595s
   223   256    1.00000   11 2948    0.68889    1.00000  45.2%  72.3  938s
   255   640    1.00000   12 2947    0.68889    1.00000  45.2%  63.4  949s
   639   672    1.00000   24 2935    0.68889    1.00000  45.2%  26.0 2213s
H  641   672                       0.6933333    1.00000  44.2%  25.9 2213s
H  643   672                       0.7244444    1.00000  38.0%  25.8 2213s
   671  1553    1.00000   25 2934    0.72444    1.00000  38.0%  24.8 2421s
  1552  4712    1.00000   62 2440    0.72444    1.00000  38.0%   263 3600s
H 3091  4712                       0.7333333    1.00000  36.4%   205 3600s

Explored 4711 nodes (797726 simplex iterations) in 3600.46 seconds (6258.07 work units)
Thread count was 32 (of 192 available processors)

Solution count 7: 0.733333 0.724444 0.693333 ... -23699.3

Time limit reached
Best objective 7.333333333333e-01, best bound 1.000000000000e+00, gap 36.3636%

User-callback calls 2576339, time in user-callback 14.16 sec
